puffin_milp.lp
Minimize
    a00 + a01 + a02 + a03 + a04 + a05 + a06 + a07 + a08 + a09 + a10 + a11 + a12 + a13 + a14 + a15
Subject To
    R0: x000 + x001 + x002 + x003 + x010 + x011 + x012 + x013 + x020 + x021 + x022 + x023 + x030 + x031 + x032 + x033 + x040 + x041 + x042 + x043 + x050 + x051 + x052 + x053 + x060 + x061 + x062 + x063 + x070 + x071 + x072 + x073 + x080 + x081 + x082 + x083 + x090 + x091 + x092 + x093 + x100 + x101 + x102 + x103 + x110 + x111 + x112 + x113 + x120 + x121 + x122 + x123 + x130 + x131 + x132 + x133 + x140 + x141 + x142 + x143 + x150 + x151 + x152 + x153 >= 1
    R1: x000 - a00 <= 0
    R2: x001 - a00 <= 0
    R3: x002 - a00 <= 0
    R4: x003 - a00 <= 0
    R5: x000 + x001 + x002 + x003 - a00 >= 0
    R6: 4 x1000 + 4 x1001 + 4 x1002 + 4 x1003 - x000 - x001 - x002 - x003 >= 0
    R7: 4 x000 + 4 x001 + 4 x002 + 4 x003 - x1000 - x1001 - x1002 - x1003 >= 0
    R8: x000 + x001 + x002 + x003 + x1000 + x1001 + x1002 + x1003 - 3a00 >= 0
    R9: x010 - a01 <= 0
    R10: x011 - a01 <= 0
    R11: x012 - a01 <= 0
    R12: x013 - a01 <= 0
    R13: x010 + x011 + x012 + x013 - a01 >= 0
    R14: 4 x1010 + 4 x1011 + 4 x1012 + 4 x1013 - x010 - x011 - x012 - x013 >= 0
    R15: 4 x010 + 4 x011 + 4 x012 + 4 x013 - x1010 - x1011 - x1012 - x1013 >= 0
    R16: x010 + x011 + x012 + x013 + x1010 + x1011 + x1012 + x1013 - 3a01 >= 0
    R17: x020 - a02 <= 0
    R18: x021 - a02 <= 0
    R19: x022 - a02 <= 0
    R20: x023 - a02 <= 0
    R21: x020 + x021 + x022 + x023 - a02 >= 0
    R22: 4 x1020 + 4 x1021 + 4 x1022 + 4 x1023 - x020 - x021 - x022 - x023 >= 0
    R23: 4 x020 + 4 x021 + 4 x022 + 4 x023 - x1020 - x1021 - x1022 - x1023 >= 0
    R24: x020 + x021 + x022 + x023 + x1020 + x1021 + x1022 + x1023 - 3a02 >= 0
    R25: x030 - a03 <= 0
    R26: x031 - a03 <= 0
    R27: x032 - a03 <= 0
    R28: x033 - a03 <= 0
    R29: x030 + x031 + x032 + x033 - a03 >= 0
    R30: 4 x1030 + 4 x1031 + 4 x1032 + 4 x1033 - x030 - x031 - x032 - x033 >= 0
    R31: 4 x030 + 4 x031 + 4 x032 + 4 x033 - x1030 - x1031 - x1032 - x1033 >= 0
    R32: x030 + x031 + x032 + x033 + x1030 + x1031 + x1032 + x1033 - 3a03 >= 0
    R33: x040 - a04 <= 0
    R34: x041 - a04 <= 0
    R35: x042 - a04 <= 0
    R36: x043 - a04 <= 0
    R37: x040 + x041 + x042 + x043 - a04 >= 0
    R38: 4 x1040 + 4 x1041 + 4 x1042 + 4 x1043 - x040 - x041 - x042 - x043 >= 0
    R39: 4 x040 + 4 x041 + 4 x042 + 4 x043 - x1040 - x1041 - x1042 - x1043 >= 0
    R40: x040 + x041 + x042 + x043 + x1040 + x1041 + x1042 + x1043 - 3a04 >= 0
    R41: x050 - a05 <= 0
    R42: x051 - a05 <= 0
    R43: x052 - a05 <= 0
    R44: x053 - a05 <= 0
    R45: x050 + x051 + x052 + x053 - a05 >= 0
    R46: 4 x1050 + 4 x1051 + 4 x1052 + 4 x1053 - x050 - x051 - x052 - x053 >= 0
    R47: 4 x050 + 4 x051 + 4 x052 + 4 x053 - x1050 - x1051 - x1052 - x1053 >= 0
    R48: x050 + x051 + x052 + x053 + x1050 + x1051 + x1052 + x1053 - 3a05 >= 0
    R49: x060 - a06 <= 0
    R50: x061 - a06 <= 0
    R51: x062 - a06 <= 0
    R52: x063 - a06 <= 0
    R53: x060 + x061 + x062 + x063 - a06 >= 0
    R54: 4 x1060 + 4 x1061 + 4 x1062 + 4 x1063 - x060 - x061 - x062 - x063 >= 0
    R55: 4 x060 + 4 x061 + 4 x062 + 4 x063 - x1060 - x1061 - x1062 - x1063 >= 0
    R56: x060 + x061 + x062 + x063 + x1060 + x1061 + x1062 + x1063 - 3a06 >= 0
    R57: x070 - a07 <= 0
    R58: x071 - a07 <= 0
    R59: x072 - a07 <= 0
    R60: x073 - a07 <= 0
    R61: x070 + x071 + x072 + x073 - a07 >= 0
    R62: 4 x1070 + 4 x1071 + 4 x1072 + 4 x1073 - x070 - x071 - x072 - x073 >= 0
    R63: 4 x070 + 4 x071 + 4 x072 + 4 x073 - x1070 - x1071 - x1072 - x1073 >= 0
    R64: x070 + x071 + x072 + x073 + x1070 + x1071 + x1072 + x1073 - 3a07 >= 0
    R65: x080 - a08 <= 0
    R66: x081 - a08 <= 0
    R67: x082 - a08 <= 0
    R68: x083 - a08 <= 0
    R69: x080 + x081 + x082 + x083 - a08 >= 0
    R70: 4 x1080 + 4 x1081 + 4 x1082 + 4 x1083 - x080 - x081 - x082 - x083 >= 0
    R71: 4 x080 + 4 x081 + 4 x082 + 4 x083 - x1080 - x1081 - x1082 - x1083 >= 0
    R72: x080 + x081 + x082 + x083 + x1080 + x1081 + x1082 + x1083 - 3a08 >= 0
    R73: x090 - a09 <= 0
    R74: x091 - a09 <= 0
    R75: x092 - a09 <= 0
    R76: x093 - a09 <= 0
    R77: x090 + x091 + x092 + x093 - a09 >= 0
    R78: 4 x1090 + 4 x1091 + 4 x1092 + 4 x1093 - x090 - x091 - x092 - x093 >= 0
    R79: 4 x090 + 4 x091 + 4 x092 + 4 x093 - x1090 - x1091 - x1092 - x1093 >= 0
    R80: x090 + x091 + x092 + x093 + x1090 + x1091 + x1092 + x1093 - 3a09 >= 0
    R81: x100 - a10 <= 0
    R82: x101 - a10 <= 0
    R83: x102 - a10 <= 0
    R84: x103 - a10 <= 0
    R85: x100 + x101 + x102 + x103 - a10 >= 0
    R86: 4 x1100 + 4 x1101 + 4 x1102 + 4 x1103 - x100 - x101 - x102 - x103 >= 0
    R87: 4 x100 + 4 x101 + 4 x102 + 4 x103 - x1100 - x1101 - x1102 - x1103 >= 0
    R88: x100 + x101 + x102 + x103 + x1100 + x1101 + x1102 + x1103 - 3a10 >= 0
    R89: x110 - a11 <= 0
    R90: x111 - a11 <= 0
    R91: x112 - a11 <= 0
    R92: x113 - a11 <= 0
    R93: x110 + x111 + x112 + x113 - a11 >= 0
    R94: 4 x1110 + 4 x1111 + 4 x1112 + 4 x1113 - x110 - x111 - x112 - x113 >= 0
    R95: 4 x110 + 4 x111 + 4 x112 + 4 x113 - x1110 - x1111 - x1112 - x1113 >= 0
    R96: x110 + x111 + x112 + x113 + x1110 + x1111 + x1112 + x1113 - 3a11 >= 0
    R97: x120 - a12 <= 0
    R98: x121 - a12 <= 0
    R99: x122 - a12 <= 0
    R100: x123 - a12 <= 0
    R101: x120 + x121 + x122 + x123 - a12 >= 0
    R102: 4 x1120 + 4 x1121 + 4 x1122 + 4 x1123 - x120 - x121 - x122 - x123 >= 0
    R103: 4 x120 + 4 x121 + 4 x122 + 4 x123 - x1120 - x1121 - x1122 - x1123 >= 0
    R104: x120 + x121 + x122 + x123 + x1120 + x1121 + x1122 + x1123 - 3a12 >= 0
    R105: x130 - a13 <= 0
    R106: x131 - a13 <= 0
    R107: x132 - a13 <= 0
    R108: x133 - a13 <= 0
    R109: x130 + x131 + x132 + x133 - a13 >= 0
    R110: 4 x1130 + 4 x1131 + 4 x1132 + 4 x1133 - x130 - x131 - x132 - x133 >= 0
    R111: 4 x130 + 4 x131 + 4 x132 + 4 x133 - x1130 - x1131 - x1132 - x1133 >= 0
    R112: x130 + x131 + x132 + x133 + x1130 + x1131 + x1132 + x1133 - 3a13 >= 0
    R113: x140 - a14 <= 0
    R114: x141 - a14 <= 0
    R115: x142 - a14 <= 0
    R116: x143 - a14 <= 0
    R117: x140 + x141 + x142 + x143 - a14 >= 0
    R118: 4 x1140 + 4 x1141 + 4 x1142 + 4 x1143 - x140 - x141 - x142 - x143 >= 0
    R119: 4 x140 + 4 x141 + 4 x142 + 4 x143 - x1140 - x1141 - x1142 - x1143 >= 0
    R120: x140 + x141 + x142 + x143 + x1140 + x1141 + x1142 + x1143 - 3a14 >= 0
    R121: x150 - a15 <= 0
    R122: x151 - a15 <= 0
    R123: x152 - a15 <= 0
    R124: x153 - a15 <= 0
    R125: x150 + x151 + x152 + x153 - a15 >= 0
    R126: 4 x1150 + 4 x1151 + 4 x1152 + 4 x1153 - x150 - x151 - x152 - x153 >= 0
    R127: 4 x150 + 4 x151 + 4 x152 + 4 x153 - x1150 - x1151 - x1152 - x1153 >= 0
    R128: x150 + x151 + x152 + x153 + x1150 + x1151 + x1152 + x1153 - 3a15 >= 0
Bounds
    0 <= x000
    0 <= x001
    0 <= x002
    0 <= x003
    0 <= a00
    0 <= x010
    0 <= x011
    0 <= x012
    0 <= x013
    0 <= a01
    0 <= x020
    0 <= x021
    0 <= x022
    0 <= x023
    0 <= a02
    0 <= x030
    0 <= x031
    0 <= x032
    0 <= x033
    0 <= a03
    0 <= x040
    0 <= x041
    0 <= x042
    0 <= x043
    0 <= a04
    0 <= x050
    0 <= x051
    0 <= x052
    0 <= x053
    0 <= a05
    0 <= x060
    0 <= x061
    0 <= x062
    0 <= x063
    0 <= a06
    0 <= x070
    0 <= x071
    0 <= x072
    0 <= x073
    0 <= a07
    0 <= x080
    0 <= x081
    0 <= x082
    0 <= x083
    0 <= a08
    0 <= x090
    0 <= x091
    0 <= x092
    0 <= x093
    0 <= a09
    0 <= x100
    0 <= x101
    0 <= x102
    0 <= x103
    0 <= a10
    0 <= x110
    0 <= x111
    0 <= x112
    0 <= x113
    0 <= a11
    0 <= x120
    0 <= x121
    0 <= x122
    0 <= x123
    0 <= a12
    0 <= x130
    0 <= x131
    0 <= x132
    0 <= x133
    0 <= a13
    0 <= x140
    0 <= x141
    0 <= x142
    0 <= x143
    0 <= a14
    0 <= x150
    0 <= x151
    0 <= x152
    0 <= x153
    0 <= a15
Binary
    x000, x001, x002, x003, x010, x011, x012, x013, x020, x021, x022, x023, x030, x031, x032, x033, x040, x041, x042, x043, x050, x051, x052, x053, x060, x061, x062, x063, x070, x071, x072, x073, x080, x081, x082, x083, x090, x091, x092, x093, x100, x101, x102, x103, x110, x111, x112, x113, x120, x121, x122, x123, x130, x131, x132, x133, x140, x141, x142, x143, x150, x151, x152, x153
Generals
    a00, a01, a02, a03, a04, a05, a06, a07, a08, a09, a10, a11, a12, a13, a14, a15
End

